data;
set K:= K1 K2 K3 K4 K5 K6 K7 K8 K9 K10 ;

set F:= F1 F2 F3 ;

set Q:= Q1 Q2 ;

param T:= 45;
param V: 
	K1  K2  K3  K4  K5  K6  K7  K8  K9  K10 :=
Q1	1   1   1   1   1   1   0   0   0   0   
Q2	0   0   0   0   0   0   1   1   1   1   
; # if resorce k is of type q

param TF:= 
K1 6
K2 6
K3 6
K4 6
K5 6
K6 6
K7 12
K8 12
K9 12
K10 12
; # number of continuous time slots resource can fly

param TR:= 
K1 2
K2 2
K3 2
K4 2
K5 2
K6 2
K7 4
K8 4
K9 4
K10 4
; #  number of continuous time slots resource k needs to rest between flights

param P:= 
K1 36
K2 36
K3 36
K4 36
K5 36
K6 36
K7 36
K8 36
K9 36
K10 36
; #  number of continuous time slots a pilot can be present including rest times for resource k 

param N:= 
K1 4
K2 4
K3 4
K4 4
K5 4
K6 4
K7 2
K8 2
K9 2
K10 2
; # max number of flights resource k can fly in the total time period

param A: 
	K1  K2  K3  K4  K5  K6  K7  K8  K9  K10 :=
1	1   1   1   1   1   1   1   1   1   1   
2	1   1   1   1   1   1   1   1   1   1   
3	1   1   1   1   1   1   1   1   1   1   
4	1   1   1   1   1   1   1   1   1   1   
5	1   1   1   1   1   1   1   1   1   1   
6	1   1   1   1   1   1   1   1   1   1   
7	1   1   1   1   1   1   1   1   1   1   
8	1   1   1   1   1   1   1   1   1   1   
9	1   1   1   1   1   1   1   1   1   1   
10	1   1   1   1   1   1   1   1   1   1   
11	1   1   1   1   1   1   1   1   1   1   
12	1   1   1   1   1   1   1   1   1   1   
13	1   1   1   1   1   1   1   1   1   1   
14	1   1   1   1   1   1   1   1   1   1   
15	1   1   1   1   1   1   1   1   1   1   
16	1   1   1   1   1   1   1   1   1   1   
17	1   1   1   1   1   1   1   1   1   1   
18	1   1   1   1   1   1   1   1   1   1   
19	1   1   1   1   1   1   1   1   1   1   
20	1   1   1   1   1   1   1   1   1   1   
21	1   1   1   1   1   1   1   1   1   1   
22	1   1   1   1   1   1   1   1   1   1   
23	1   1   1   1   1   1   1   1   1   1   
24	1   1   1   1   1   1   1   1   1   1   
25	1   1   1   1   1   1   1   1   1   1   
26	1   1   1   1   1   1   1   1   1   1   
27	1   1   1   1   1   1   1   1   1   1   
28	1   1   1   1   1   1   1   1   1   1   
29	1   1   1   1   1   1   1   1   1   1   
30	1   1   1   1   1   1   1   1   1   1   
31	1   1   1   1   1   1   1   1   1   1   
32	1   1   1   1   1   1   1   1   1   1   
33	1   1   1   1   1   1   1   1   1   1   
34	1   1   1   1   1   1   1   1   1   1   
35	1   1   1   1   1   1   1   1   1   1   
36	1   1   1   1   1   1   1   1   1   1   
37	1   1   1   1   1   1   1   1   1   1   
38	1   1   1   1   1   1   1   1   1   1   
39	1   1   1   1   1   1   1   1   1   1   
40	1   1   1   1   1   1   1   1   1   1   
41	1   1   1   1   1   1   1   1   1   1   
42	1   1   1   1   1   1   1   1   1   1   
43	1   1   1   1   1   1   1   1   1   1   
44	1   1   1   1   1   1   1   1   1   1   
45	1   1   1   1   1   1   1   1   1   1   
; # availability of resorce k in time slot t

param B: 
	F1  F2  F3  :=
Q1	0   0   0   
Q2	0   0   0   
; # if front f requires resources of type q

param U: 
	F1  F2  F3  :=
K1	0   0   0   
K2	0   0   0   
K3	0   0   0   
K4	0   0   0   
K5	0   0   0   
K6	0   0   0   
K7	1   1   1   
K8	0   0   0   
K9	0   0   0   
K10	1   1   1   
; # transit time of resource

param C:= 
K1 900
K2 900
K3 900
K4 1500
K5 4500
K6 2100
K7 5500
K8 5500
K9 5500
K10 5500
; #  water capacity of resource k

param S:= 
F1 8
F2 10
F3 9
; # max number of resources that can fly at front f in the same time slot

param D:= 

[*,*,F1 ]:  K1    K2    K3    K4    K5    K6    K7    K8    K9    K10   :=
1           1.99  1.99  1.99  1.99  1.58  1.99  1.19  1.19  1.19  1.19  
2           1.99  1.99  1.99  1.99  1.58  1.99  1.19  1.19  1.19  1.19  
3           1.99  1.99  1.99  1.99  1.58  1.99  1.19  1.19  1.19  1.19  
4           1.99  1.99  1.99  1.99  1.58  1.99  1.19  1.19  1.19  1.19  
5           1.99  1.99  1.99  1.99  1.58  1.99  1.19  1.19  1.19  1.19  
6           1.99  1.99  1.99  1.99  1.58  1.99  1.19  1.19  1.19  1.19  
7           1.99  1.99  1.99  1.99  1.58  1.99  1.19  1.19  1.19  1.19  
8           1.99  1.99  1.99  1.99  1.58  1.99  1.19  1.19  1.19  1.19  
9           1.99  1.99  1.99  1.99  1.58  1.99  1.19  1.19  1.19  1.19  
10          1.99  1.99  1.99  1.99  1.58  1.99  1.19  1.19  1.19  1.19  
11          1.99  1.99  1.99  1.99  1.58  1.99  1.19  1.19  1.19  1.19  
12          1.99  1.99  1.99  1.99  1.58  1.99  1.19  1.19  1.19  1.19  
13          1.99  1.99  1.99  1.99  1.58  1.99  1.19  1.19  1.19  1.19  
14          1.99  1.99  1.99  1.99  1.58  1.99  1.19  1.19  1.19  1.19  
15          1.99  1.99  1.99  1.99  1.58  1.99  1.19  1.19  1.19  1.19  
16          1.99  1.99  1.99  1.99  1.58  1.99  1.19  1.19  1.19  1.19  
17          1.99  1.99  1.99  1.99  1.58  1.99  1.19  1.19  1.19  1.19  
18          1.99  1.99  1.99  1.99  1.58  1.99  1.19  1.19  1.19  1.19  
19          1.99  1.99  1.99  1.99  1.58  1.99  1.19  1.19  1.19  1.19  
20          1.99  1.99  1.99  1.99  1.58  1.99  1.19  1.19  1.19  1.19  
21          1.99  1.99  1.99  1.99  1.58  1.99  1.19  1.19  1.19  1.19  
22          1.99  1.99  1.99  1.99  1.58  1.99  1.19  1.19  1.19  1.19  
23          1.99  1.99  1.99  1.99  1.58  1.99  1.19  1.19  1.19  1.19  
24          1.99  1.99  1.99  1.99  1.58  1.99  1.19  1.19  1.19  1.19  
25          1.89  1.89  1.89  1.89  1.50  1.89  1.13  1.13  1.13  1.13  
26          1.89  1.89  1.89  1.89  1.50  1.89  1.13  1.13  1.13  1.13  
27          1.89  1.89  1.89  1.89  1.50  1.89  1.13  1.13  1.13  1.13  
28          1.89  1.89  1.89  1.89  1.50  1.89  1.13  1.13  1.13  1.13  
29          1.89  1.89  1.89  1.89  1.50  1.89  1.13  1.13  1.13  1.13  
30          1.89  1.89  1.89  1.89  1.50  1.89  1.13  1.13  1.13  1.13  
31          1.89  1.89  1.89  1.89  1.50  1.89  1.13  1.13  1.13  1.13  
32          1.89  1.89  1.89  1.89  1.50  1.89  1.13  1.13  1.13  1.13  
33          1.89  1.89  1.89  1.89  1.50  1.89  1.13  1.13  1.13  1.13  
34          1.99  1.99  1.99  1.99  1.58  1.99  1.19  1.19  1.19  1.19  
35          1.99  1.99  1.99  1.99  1.58  1.99  1.19  1.19  1.19  1.19  
36          1.99  1.99  1.99  1.99  1.58  1.99  1.19  1.19  1.19  1.19  
37          1.99  1.99  1.99  1.99  1.58  1.99  1.19  1.19  1.19  1.19  
38          1.99  1.99  1.99  1.99  1.58  1.99  1.19  1.19  1.19  1.19  
39          1.99  1.99  1.99  1.99  1.58  1.99  1.19  1.19  1.19  1.19  
40          1.99  1.99  1.99  1.99  1.58  1.99  1.19  1.19  1.19  1.19  
41          1.99  1.99  1.99  1.99  1.58  1.99  1.19  1.19  1.19  1.19  
42          1.99  1.99  1.99  1.99  1.58  1.99  1.19  1.19  1.19  1.19  
43          1.99  1.99  1.99  1.99  1.58  1.99  1.19  1.19  1.19  1.19  
44          1.99  1.99  1.99  1.99  1.58  1.99  1.19  1.19  1.19  1.19  
45          1.99  1.99  1.99  1.99  1.58  1.99  1.19  1.19  1.19  1.19  

[*,*,F2 ]:  K1    K2    K3    K4    K5    K6    K7    K8    K9    K10   :=
1           1.85  1.85  1.85  1.85  1.48  1.85  1.11  1.11  1.11  1.11  
2           1.85  1.85  1.85  1.85  1.48  1.85  1.11  1.11  1.11  1.11  
3           1.85  1.85  1.85  1.85  1.48  1.85  1.11  1.11  1.11  1.11  
4           1.85  1.85  1.85  1.85  1.48  1.85  1.11  1.11  1.11  1.11  
5           1.85  1.85  1.85  1.85  1.48  1.85  1.11  1.11  1.11  1.11  
6           1.85  1.85  1.85  1.85  1.48  1.85  1.11  1.11  1.11  1.11  
7           1.85  1.85  1.85  1.85  1.48  1.85  1.11  1.11  1.11  1.11  
8           1.85  1.85  1.85  1.85  1.48  1.85  1.11  1.11  1.11  1.11  
9           1.85  1.85  1.85  1.85  1.48  1.85  1.11  1.11  1.11  1.11  
10          1.85  1.85  1.85  1.85  1.48  1.85  1.11  1.11  1.11  1.11  
11          1.85  1.85  1.85  1.85  1.48  1.85  1.11  1.11  1.11  1.11  
12          1.85  1.85  1.85  1.85  1.48  1.85  1.11  1.11  1.11  1.11  
13          1.85  1.85  1.85  1.85  1.48  1.85  1.11  1.11  1.11  1.11  
14          1.85  1.85  1.85  1.85  1.48  1.85  1.11  1.11  1.11  1.11  
15          1.85  1.85  1.85  1.85  1.48  1.85  1.11  1.11  1.11  1.11  
16          1.85  1.85  1.85  1.85  1.48  1.85  1.11  1.11  1.11  1.11  
17          1.85  1.85  1.85  1.85  1.48  1.85  1.11  1.11  1.11  1.11  
18          1.85  1.85  1.85  1.85  1.48  1.85  1.11  1.11  1.11  1.11  
19          1.85  1.85  1.85  1.85  1.48  1.85  1.11  1.11  1.11  1.11  
20          1.85  1.85  1.85  1.85  1.48  1.85  1.11  1.11  1.11  1.11  
21          1.85  1.85  1.85  1.85  1.48  1.85  1.11  1.11  1.11  1.11  
22          1.85  1.85  1.85  1.85  1.48  1.85  1.11  1.11  1.11  1.11  
23          1.85  1.85  1.85  1.85  1.48  1.85  1.11  1.11  1.11  1.11  
24          1.85  1.85  1.85  1.85  1.48  1.85  1.11  1.11  1.11  1.11  
25          1.76  1.76  1.76  1.76  1.40  1.76  1.05  1.05  1.05  1.05  
26          1.76  1.76  1.76  1.76  1.40  1.76  1.05  1.05  1.05  1.05  
27          1.76  1.76  1.76  1.76  1.40  1.76  1.05  1.05  1.05  1.05  
28          1.76  1.76  1.76  1.76  1.40  1.76  1.05  1.05  1.05  1.05  
29          1.76  1.76  1.76  1.76  1.40  1.76  1.05  1.05  1.05  1.05  
30          1.76  1.76  1.76  1.76  1.40  1.76  1.05  1.05  1.05  1.05  
31          1.76  1.76  1.76  1.76  1.40  1.76  1.05  1.05  1.05  1.05  
32          1.76  1.76  1.76  1.76  1.40  1.76  1.05  1.05  1.05  1.05  
33          1.76  1.76  1.76  1.76  1.40  1.76  1.05  1.05  1.05  1.05  
34          1.85  1.85  1.85  1.85  1.48  1.85  1.11  1.11  1.11  1.11  
35          1.85  1.85  1.85  1.85  1.48  1.85  1.11  1.11  1.11  1.11  
36          1.85  1.85  1.85  1.85  1.48  1.85  1.11  1.11  1.11  1.11  
37          1.85  1.85  1.85  1.85  1.48  1.85  1.11  1.11  1.11  1.11  
38          1.85  1.85  1.85  1.85  1.48  1.85  1.11  1.11  1.11  1.11  
39          1.85  1.85  1.85  1.85  1.48  1.85  1.11  1.11  1.11  1.11  
40          1.85  1.85  1.85  1.85  1.48  1.85  1.11  1.11  1.11  1.11  
41          1.85  1.85  1.85  1.85  1.48  1.85  1.11  1.11  1.11  1.11  
42          1.85  1.85  1.85  1.85  1.48  1.85  1.11  1.11  1.11  1.11  
43          1.85  1.85  1.85  1.85  1.48  1.85  1.11  1.11  1.11  1.11  
44          1.85  1.85  1.85  1.85  1.48  1.85  1.11  1.11  1.11  1.11  
45          1.85  1.85  1.85  1.85  1.48  1.85  1.11  1.11  1.11  1.11  

[*,*,F3 ]:  K1    K2    K3    K4    K5    K6    K7    K8    K9    K10   :=
1           1.99  1.99  1.99  1.99  1.58  1.99  1.19  1.19  1.19  1.19  
2           1.99  1.99  1.99  1.99  1.58  1.99  1.19  1.19  1.19  1.19  
3           1.99  1.99  1.99  1.99  1.58  1.99  1.19  1.19  1.19  1.19  
4           1.99  1.99  1.99  1.99  1.58  1.99  1.19  1.19  1.19  1.19  
5           1.99  1.99  1.99  1.99  1.58  1.99  1.19  1.19  1.19  1.19  
6           1.99  1.99  1.99  1.99  1.58  1.99  1.19  1.19  1.19  1.19  
7           1.99  1.99  1.99  1.99  1.58  1.99  1.19  1.19  1.19  1.19  
8           1.99  1.99  1.99  1.99  1.58  1.99  1.19  1.19  1.19  1.19  
9           1.99  1.99  1.99  1.99  1.58  1.99  1.19  1.19  1.19  1.19  
10          1.99  1.99  1.99  1.99  1.58  1.99  1.19  1.19  1.19  1.19  
11          1.99  1.99  1.99  1.99  1.58  1.99  1.19  1.19  1.19  1.19  
12          1.99  1.99  1.99  1.99  1.58  1.99  1.19  1.19  1.19  1.19  
13          1.99  1.99  1.99  1.99  1.58  1.99  1.19  1.19  1.19  1.19  
14          1.99  1.99  1.99  1.99  1.58  1.99  1.19  1.19  1.19  1.19  
15          1.99  1.99  1.99  1.99  1.58  1.99  1.19  1.19  1.19  1.19  
16          1.99  1.99  1.99  1.99  1.58  1.99  1.19  1.19  1.19  1.19  
17          1.99  1.99  1.99  1.99  1.58  1.99  1.19  1.19  1.19  1.19  
18          1.99  1.99  1.99  1.99  1.58  1.99  1.19  1.19  1.19  1.19  
19          1.99  1.99  1.99  1.99  1.58  1.99  1.19  1.19  1.19  1.19  
20          1.99  1.99  1.99  1.99  1.58  1.99  1.19  1.19  1.19  1.19  
21          1.99  1.99  1.99  1.99  1.58  1.99  1.19  1.19  1.19  1.19  
22          1.99  1.99  1.99  1.99  1.58  1.99  1.19  1.19  1.19  1.19  
23          1.99  1.99  1.99  1.99  1.58  1.99  1.19  1.19  1.19  1.19  
24          1.99  1.99  1.99  1.99  1.58  1.99  1.19  1.19  1.19  1.19  
25          1.89  1.89  1.89  1.89  1.50  1.89  1.13  1.13  1.13  1.13  
26          1.89  1.89  1.89  1.89  1.50  1.89  1.13  1.13  1.13  1.13  
27          1.89  1.89  1.89  1.89  1.50  1.89  1.13  1.13  1.13  1.13  
28          1.89  1.89  1.89  1.89  1.50  1.89  1.13  1.13  1.13  1.13  
29          1.89  1.89  1.89  1.89  1.50  1.89  1.13  1.13  1.13  1.13  
30          1.89  1.89  1.89  1.89  1.50  1.89  1.13  1.13  1.13  1.13  
31          1.89  1.89  1.89  1.89  1.50  1.89  1.13  1.13  1.13  1.13  
32          1.89  1.89  1.89  1.89  1.50  1.89  1.13  1.13  1.13  1.13  
33          1.89  1.89  1.89  1.89  1.50  1.89  1.13  1.13  1.13  1.13  
34          1.99  1.99  1.99  1.99  1.58  1.99  1.19  1.19  1.19  1.19  
35          1.99  1.99  1.99  1.99  1.58  1.99  1.19  1.19  1.19  1.19  
36          1.99  1.99  1.99  1.99  1.58  1.99  1.19  1.19  1.19  1.19  
37          1.99  1.99  1.99  1.99  1.58  1.99  1.19  1.19  1.19  1.19  
38          1.99  1.99  1.99  1.99  1.58  1.99  1.19  1.19  1.19  1.19  
39          1.99  1.99  1.99  1.99  1.58  1.99  1.19  1.19  1.19  1.19  
40          1.99  1.99  1.99  1.99  1.58  1.99  1.19  1.19  1.19  1.19  
41          1.99  1.99  1.99  1.99  1.58  1.99  1.19  1.19  1.19  1.19  
42          1.99  1.99  1.99  1.99  1.58  1.99  1.19  1.19  1.19  1.19  
43          1.99  1.99  1.99  1.99  1.58  1.99  1.19  1.19  1.19  1.19  
44          1.99  1.99  1.99  1.99  1.58  1.99  1.19  1.19  1.19  1.19  
45          1.99  1.99  1.99  1.99  1.58  1.99  1.19  1.19  1.19  1.19  
; # downloads resource k can do at front f in time t if intermediate time slot

param E:= 

[*,*,F1 ]:  K1    K2    K3    K4    K5    K6    K7    K8    K9    K10   :=
1           0.18  0.42  0.91  0.85  0.25  0.10  0.24  0.37  0.12  0.38  
2           0.18  0.42  0.91  0.85  0.25  0.10  0.24  0.37  0.12  0.38  
3           0.18  0.42  0.91  0.85  0.25  0.10  0.24  0.37  0.12  0.38  
4           0.18  0.42  0.91  0.85  0.25  0.10  0.24  0.37  0.12  0.38  
5           0.18  0.42  0.91  0.85  0.25  0.10  0.24  0.37  0.12  0.38  
6           0.18  0.42  0.91  0.85  0.25  0.10  0.24  0.37  0.12  0.38  
7           0.18  0.42  0.91  0.85  0.25  0.10  0.24  0.37  0.12  0.38  
8           0.18  0.42  0.91  0.85  0.25  0.10  0.24  0.37  0.12  0.38  
9           0.18  0.42  0.91  0.85  0.25  0.10  0.24  0.37  0.12  0.38  
10          0.18  0.42  0.91  0.85  0.25  0.10  0.24  0.37  0.12  0.38  
11          0.18  0.42  0.91  0.85  0.25  0.10  0.24  0.37  0.12  0.38  
12          0.18  0.42  0.91  0.85  0.25  0.10  0.24  0.37  0.12  0.38  
13          0.18  0.42  0.91  0.85  0.25  0.10  0.24  0.37  0.12  0.38  
14          0.18  0.42  0.91  0.85  0.25  0.10  0.24  0.37  0.12  0.38  
15          0.18  0.42  0.91  0.85  0.25  0.10  0.24  0.37  0.12  0.38  
16          0.18  0.42  0.91  0.85  0.25  0.10  0.24  0.37  0.12  0.38  
17          0.18  0.42  0.91  0.85  0.25  0.10  0.24  0.37  0.12  0.38  
18          0.18  0.42  0.91  0.85  0.25  0.10  0.24  0.37  0.12  0.38  
19          0.18  0.42  0.91  0.85  0.25  0.10  0.24  0.37  0.12  0.38  
20          0.18  0.42  0.91  0.85  0.25  0.10  0.24  0.37  0.12  0.38  
21          0.18  0.42  0.91  0.85  0.25  0.10  0.24  0.37  0.12  0.38  
22          0.18  0.42  0.91  0.85  0.25  0.10  0.24  0.37  0.12  0.38  
23          0.18  0.42  0.91  0.85  0.25  0.10  0.24  0.37  0.12  0.38  
24          0.18  0.42  0.91  0.85  0.25  0.10  0.24  0.37  0.12  0.38  
25          0.17  0.40  0.87  0.81  0.24  0.09  0.23  0.35  0.11  0.36  
26          0.17  0.40  0.87  0.81  0.24  0.09  0.23  0.35  0.11  0.36  
27          0.17  0.40  0.87  0.81  0.24  0.09  0.23  0.35  0.11  0.36  
28          0.17  0.40  0.87  0.81  0.24  0.09  0.23  0.35  0.11  0.36  
29          0.17  0.40  0.87  0.81  0.24  0.09  0.23  0.35  0.11  0.36  
30          0.17  0.40  0.87  0.81  0.24  0.09  0.23  0.35  0.11  0.36  
31          0.17  0.40  0.87  0.81  0.24  0.09  0.23  0.35  0.11  0.36  
32          0.17  0.40  0.87  0.81  0.24  0.09  0.23  0.35  0.11  0.36  
33          0.17  0.40  0.87  0.81  0.24  0.09  0.23  0.35  0.11  0.36  
34          0.18  0.42  0.91  0.85  0.25  0.10  0.24  0.37  0.12  0.38  
35          0.18  0.42  0.91  0.85  0.25  0.10  0.24  0.37  0.12  0.38  
36          0.18  0.42  0.91  0.85  0.25  0.10  0.24  0.37  0.12  0.38  
37          0.18  0.42  0.91  0.85  0.25  0.10  0.24  0.37  0.12  0.38  
38          0.18  0.42  0.91  0.85  0.25  0.10  0.24  0.37  0.12  0.38  
39          0.18  0.42  0.91  0.85  0.25  0.10  0.24  0.37  0.12  0.38  
40          0.18  0.42  0.91  0.85  0.25  0.10  0.24  0.37  0.12  0.38  
41          0.18  0.42  0.91  0.85  0.25  0.10  0.24  0.37  0.12  0.38  
42          0.18  0.42  0.91  0.85  0.25  0.10  0.24  0.37  0.12  0.38  
43          0.18  0.42  0.91  0.85  0.25  0.10  0.24  0.37  0.12  0.38  
44          0.18  0.42  0.91  0.85  0.25  0.10  0.24  0.37  0.12  0.38  
45          0.18  0.42  0.91  0.85  0.25  0.10  0.24  0.37  0.12  0.38  

[*,*,F2 ]:  K1    K2    K3    K4    K5    K6    K7    K8    K9    K10   :=
1           0.20  0.44  0.91  0.95  0.15  0.15  0.28  0.36  0.07  0.32  
2           0.20  0.44  0.91  0.95  0.15  0.15  0.28  0.36  0.07  0.32  
3           0.20  0.44  0.91  0.95  0.15  0.15  0.28  0.36  0.07  0.32  
4           0.20  0.44  0.91  0.95  0.15  0.15  0.28  0.36  0.07  0.32  
5           0.20  0.44  0.91  0.95  0.15  0.15  0.28  0.36  0.07  0.32  
6           0.20  0.44  0.91  0.95  0.15  0.15  0.28  0.36  0.07  0.32  
7           0.20  0.44  0.91  0.95  0.15  0.15  0.28  0.36  0.07  0.32  
8           0.20  0.44  0.91  0.95  0.15  0.15  0.28  0.36  0.07  0.32  
9           0.20  0.44  0.91  0.95  0.15  0.15  0.28  0.36  0.07  0.32  
10          0.20  0.44  0.91  0.95  0.15  0.15  0.28  0.36  0.07  0.32  
11          0.20  0.44  0.91  0.95  0.15  0.15  0.28  0.36  0.07  0.32  
12          0.20  0.44  0.91  0.95  0.15  0.15  0.28  0.36  0.07  0.32  
13          0.20  0.44  0.91  0.95  0.15  0.15  0.28  0.36  0.07  0.32  
14          0.20  0.44  0.91  0.95  0.15  0.15  0.28  0.36  0.07  0.32  
15          0.20  0.44  0.91  0.95  0.15  0.15  0.28  0.36  0.07  0.32  
16          0.20  0.44  0.91  0.95  0.15  0.15  0.28  0.36  0.07  0.32  
17          0.20  0.44  0.91  0.95  0.15  0.15  0.28  0.36  0.07  0.32  
18          0.20  0.44  0.91  0.95  0.15  0.15  0.28  0.36  0.07  0.32  
19          0.20  0.44  0.91  0.95  0.15  0.15  0.28  0.36  0.07  0.32  
20          0.20  0.44  0.91  0.95  0.15  0.15  0.28  0.36  0.07  0.32  
21          0.20  0.44  0.91  0.95  0.15  0.15  0.28  0.36  0.07  0.32  
22          0.20  0.44  0.91  0.95  0.15  0.15  0.28  0.36  0.07  0.32  
23          0.20  0.44  0.91  0.95  0.15  0.15  0.28  0.36  0.07  0.32  
24          0.20  0.44  0.91  0.95  0.15  0.15  0.28  0.36  0.07  0.32  
25          0.19  0.42  0.86  0.90  0.14  0.14  0.26  0.34  0.06  0.31  
26          0.19  0.42  0.86  0.90  0.14  0.14  0.26  0.34  0.06  0.31  
27          0.19  0.42  0.86  0.90  0.14  0.14  0.26  0.34  0.06  0.31  
28          0.19  0.42  0.86  0.90  0.14  0.14  0.26  0.34  0.06  0.31  
29          0.19  0.42  0.86  0.90  0.14  0.14  0.26  0.34  0.06  0.31  
30          0.19  0.42  0.86  0.90  0.14  0.14  0.26  0.34  0.06  0.31  
31          0.19  0.42  0.86  0.90  0.14  0.14  0.26  0.34  0.06  0.31  
32          0.19  0.42  0.86  0.90  0.14  0.14  0.26  0.34  0.06  0.31  
33          0.19  0.42  0.86  0.90  0.14  0.14  0.26  0.34  0.06  0.31  
34          0.20  0.44  0.91  0.95  0.15  0.15  0.28  0.36  0.07  0.32  
35          0.20  0.44  0.91  0.95  0.15  0.15  0.28  0.36  0.07  0.32  
36          0.20  0.44  0.91  0.95  0.15  0.15  0.28  0.36  0.07  0.32  
37          0.20  0.44  0.91  0.95  0.15  0.15  0.28  0.36  0.07  0.32  
38          0.20  0.44  0.91  0.95  0.15  0.15  0.28  0.36  0.07  0.32  
39          0.20  0.44  0.91  0.95  0.15  0.15  0.28  0.36  0.07  0.32  
40          0.20  0.44  0.91  0.95  0.15  0.15  0.28  0.36  0.07  0.32  
41          0.20  0.44  0.91  0.95  0.15  0.15  0.28  0.36  0.07  0.32  
42          0.20  0.44  0.91  0.95  0.15  0.15  0.28  0.36  0.07  0.32  
43          0.20  0.44  0.91  0.95  0.15  0.15  0.28  0.36  0.07  0.32  
44          0.20  0.44  0.91  0.95  0.15  0.15  0.28  0.36  0.07  0.32  
45          0.20  0.44  0.91  0.95  0.15  0.15  0.28  0.36  0.07  0.32  

[*,*,F3 ]:  K1    K2    K3    K4    K5    K6    K7    K8    K9    K10   :=
1           0.16  0.44  0.83  1.03  0.22  0.28  0.24  0.44  0.11  0.37  
2           0.16  0.44  0.83  1.03  0.22  0.28  0.24  0.44  0.11  0.37  
3           0.16  0.44  0.83  1.03  0.22  0.28  0.24  0.44  0.11  0.37  
4           0.16  0.44  0.83  1.03  0.22  0.28  0.24  0.44  0.11  0.37  
5           0.16  0.44  0.83  1.03  0.22  0.28  0.24  0.44  0.11  0.37  
6           0.16  0.44  0.83  1.03  0.22  0.28  0.24  0.44  0.11  0.37  
7           0.16  0.44  0.83  1.03  0.22  0.28  0.24  0.44  0.11  0.37  
8           0.16  0.44  0.83  1.03  0.22  0.28  0.24  0.44  0.11  0.37  
9           0.16  0.44  0.83  1.03  0.22  0.28  0.24  0.44  0.11  0.37  
10          0.16  0.44  0.83  1.03  0.22  0.28  0.24  0.44  0.11  0.37  
11          0.16  0.44  0.83  1.03  0.22  0.28  0.24  0.44  0.11  0.37  
12          0.16  0.44  0.83  1.03  0.22  0.28  0.24  0.44  0.11  0.37  
13          0.16  0.44  0.83  1.03  0.22  0.28  0.24  0.44  0.11  0.37  
14          0.16  0.44  0.83  1.03  0.22  0.28  0.24  0.44  0.11  0.37  
15          0.16  0.44  0.83  1.03  0.22  0.28  0.24  0.44  0.11  0.37  
16          0.16  0.44  0.83  1.03  0.22  0.28  0.24  0.44  0.11  0.37  
17          0.16  0.44  0.83  1.03  0.22  0.28  0.24  0.44  0.11  0.37  
18          0.16  0.44  0.83  1.03  0.22  0.28  0.24  0.44  0.11  0.37  
19          0.16  0.44  0.83  1.03  0.22  0.28  0.24  0.44  0.11  0.37  
20          0.16  0.44  0.83  1.03  0.22  0.28  0.24  0.44  0.11  0.37  
21          0.16  0.44  0.83  1.03  0.22  0.28  0.24  0.44  0.11  0.37  
22          0.16  0.44  0.83  1.03  0.22  0.28  0.24  0.44  0.11  0.37  
23          0.16  0.44  0.83  1.03  0.22  0.28  0.24  0.44  0.11  0.37  
24          0.16  0.44  0.83  1.03  0.22  0.28  0.24  0.44  0.11  0.37  
25          0.15  0.42  0.79  0.98  0.21  0.26  0.23  0.42  0.10  0.35  
26          0.15  0.42  0.79  0.98  0.21  0.26  0.23  0.42  0.10  0.35  
27          0.15  0.42  0.79  0.98  0.21  0.26  0.23  0.42  0.10  0.35  
28          0.15  0.42  0.79  0.98  0.21  0.26  0.23  0.42  0.10  0.35  
29          0.15  0.42  0.79  0.98  0.21  0.26  0.23  0.42  0.10  0.35  
30          0.15  0.42  0.79  0.98  0.21  0.26  0.23  0.42  0.10  0.35  
31          0.15  0.42  0.79  0.98  0.21  0.26  0.23  0.42  0.10  0.35  
32          0.15  0.42  0.79  0.98  0.21  0.26  0.23  0.42  0.10  0.35  
33          0.15  0.42  0.79  0.98  0.21  0.26  0.23  0.42  0.10  0.35  
34          0.16  0.44  0.83  1.03  0.22  0.28  0.24  0.44  0.11  0.37  
35          0.16  0.44  0.83  1.03  0.22  0.28  0.24  0.44  0.11  0.37  
36          0.16  0.44  0.83  1.03  0.22  0.28  0.24  0.44  0.11  0.37  
37          0.16  0.44  0.83  1.03  0.22  0.28  0.24  0.44  0.11  0.37  
38          0.16  0.44  0.83  1.03  0.22  0.28  0.24  0.44  0.11  0.37  
39          0.16  0.44  0.83  1.03  0.22  0.28  0.24  0.44  0.11  0.37  
40          0.16  0.44  0.83  1.03  0.22  0.28  0.24  0.44  0.11  0.37  
41          0.16  0.44  0.83  1.03  0.22  0.28  0.24  0.44  0.11  0.37  
42          0.16  0.44  0.83  1.03  0.22  0.28  0.24  0.44  0.11  0.37  
43          0.16  0.44  0.83  1.03  0.22  0.28  0.24  0.44  0.11  0.37  
44          0.16  0.44  0.83  1.03  0.22  0.28  0.24  0.44  0.11  0.37  
45          0.16  0.44  0.83  1.03  0.22  0.28  0.24  0.44  0.11  0.37  
; # downloads resource k can do at front f in time t if starting or ending flight

param W: 
	F1        F2        F3        :=
1	1583.82   791.91    791.91    
2	6335.27   3167.64   3167.64   
3	6335.27   3167.64   3167.64   
4	6335.27   3167.64   3167.64   
5	6335.27   3167.64   3167.64   
6	6335.27   3167.64   3167.64   
7	6335.27   3167.64   3167.64   
8	6335.27   3167.64   3167.64   
9	6335.27   3167.64   3167.64   
10	6335.27   3167.64   3167.64   
11	6335.27   3167.64   3167.64   
12	6335.27   3167.64   3167.64   
13	6335.27   3167.64   3167.64   
14	6335.27   3167.64   3167.64   
15	6335.27   3167.64   3167.64   
16	6335.27   3167.64   3167.64   
17	6335.27   3167.64   3167.64   
18	6335.27   3167.64   3167.64   
19	2815.68   1407.84   1407.84   
20	2815.68   1407.84   1407.84   
21	2815.68   1407.84   1407.84   
22	2815.68   1407.84   1407.84   
23	2815.68   1407.84   1407.84   
24	2815.68   1407.84   1407.84   
25	2815.68   1407.84   1407.84   
26	2815.68   1407.84   1407.84   
27	2815.68   1407.84   1407.84   
28	2815.68   1407.84   1407.84   
29	2815.68   1407.84   1407.84   
30	2815.68   1407.84   1407.84   
31	2815.68   1407.84   1407.84   
32	2815.68   1407.84   1407.84   
33	2815.68   1407.84   1407.84   
34	2815.68   1407.84   1407.84   
35	2815.68   1407.84   1407.84   
36	2815.68   1407.84   1407.84   
37	2815.68   1407.84   1407.84   
38	2815.68   1407.84   1407.84   
39	2815.68   1407.84   1407.84   
40	2815.68   1407.84   1407.84   
41	2815.68   1407.84   1407.84   
42	2815.68   1407.84   1407.84   
43	2815.68   1407.84   1407.84   
44	2815.68   1407.84   1407.84   
45	703.92    351.96    351.96    
; # water needed at front f in time slot t

param M := 100000000; 

param a1:= 10000000;

param a2:= 100;

param a3:= 0.0001;
